591531036935568 -1 0
h -2 3 0
558903516121301 -4 0
h -5 4 0
h 1 6 0
915632718188755 -7 0
h 8 9 0
h -10 11 0
896473157272305 12 -13 7 0
h 14 -5 0
979096922684376 -12 0
690535511876303 -3 0
618274972468376 -11 0
h 15 -16 0
719753603837451 -14 0
745082449182058 -9 0
1051392645594797 -17 0
911354537951017 13 0
346459309378338 -15 0
h 17 18 0
